c file mc2022_track2_003.cnf
p cnf 200 499
c t wmc
-50 101 0
-88 101 0
-24 101 0
-101 38 50 88 24 0
-68 102 0
-95 102 0
-62 102 0
-99 102 0
-102 68 95 62 99 0
-66 103 0
-27 103 0
-20 103 0
-58 103 0
-103 66 27 20 58 0
-95 104 0
-92 104 0
-59 104 0
-15 104 0
-104 95 92 59 15 0
-63 105 0
-75 105 0
-100 105 0
-37 105 0
-105 63 75 100 37 0
-43 106 0
-40 106 0
-64 106 0
-75 106 0
-106 43 40 64 75 0
-84 107 0
-20 107 0
-43 107 0
-53 107 0
-107 84 20 43 53 0
-25 108 0
-80 108 0
-42 108 0
-74 108 0
-108 25 80 42 74 0
-19 109 0
-65 109 0
-93 109 0
-13 109 0
-109 19 65 93 13 0
-79 110 0
-43 110 0
-31 110 0
-57 110 0
-110 79 43 31 57 0
-62 111 0
-40 111 0
-52 111 0
-5 111 0
-111 62 40 52 5 0
-99 112 0
-18 112 0
-67 112 0
-73 112 0
-112 99 18 67 73 0
-17 113 0
-3 113 0
-67 113 0
-57 113 0
-113 17 3 67 57 0
-18 114 0
-62 114 0
-83 114 0
-54 114 0
-114 18 62 83 54 0
-81 115 0
-78 115 0
-58 115 0
-57 115 0
-115 81 78 58 57 0
-57 116 0
-100 116 0
-82 116 0
-76 116 0
-116 57 100 82 76 0
-16 117 0
-74 117 0
-40 117 0
-94 117 0
-117 16 74 40 94 0
-68 118 0
-70 118 0
-51 118 0
-30 118 0
-118 68 70 51 30 0
-62 119 0
-54 119 0
-86 119 0
-60 119 0
-119 62 54 86 60 0
-71 120 0
-53 120 0
-84 120 0
-39 120 0
-120 71 53 84 39 0
-7 121 0
-51 121 0
-47 121 0
-77 121 0
-121 7 51 47 77 0
-12 122 0
-82 122 0
-44 122 0
-59 122 0
-122 12 82 44 59 0
-39 123 0
-1 123 0
-15 123 0
-38 123 0
-123 39 1 15 38 0
-82 124 0
-42 124 0
-54 124 0
-8 124 0
-124 82 42 54 8 0
-82 125 0
-47 125 0
-75 125 0
-3 125 0
-125 82 47 75 3 0
-49 126 0
-56 126 0
-64 126 0
-2 126 0
-126 49 56 64 2 0
-42 127 0
-75 127 0
-24 127 0
-46 127 0
-127 42 75 24 46 0
-59 128 0
-63 128 0
-52 128 0
-9 128 0
-128 59 63 52 9 0
-9 129 0
-28 129 0
-72 129 0
-90 129 0
-129 9 28 72 90 0
-9 130 0
-15 130 0
-48 130 0
-67 130 0
-130 9 15 48 67 0
-15 131 0
-37 131 0
-49 131 0
-8 131 0
-131 15 37 49 8 0
-90 132 0
-8 132 0
-41 132 0
-89 132 0
-132 90 8 41 89 0
-82 133 0
-44 133 0
-37 133 0
-90 133 0
-133 82 44 37 90 0
-59 134 0
-91 134 0
-83 134 0
-34 134 0
-134 59 91 83 34 0
-14 135 0
-28 135 0
-44 135 0
-76 135 0
-135 14 28 44 76 0
-79 136 0
-4 136 0
-85 136 0
-7 136 0
-136 79 4 85 7 0
-75 137 0
-26 137 0
-67 137 0
-41 137 0
-137 75 26 67 41 0
-26 138 0
-66 138 0
-8 138 0
-92 138 0
-138 26 66 8 92 0
-3 139 0
-8 139 0
-99 139 0
-44 139 0
-139 3 8 99 44 0
-15 140 0
-40 140 0
-32 140 0
-48 140 0
-140 15 40 32 48 0
-35 141 0
-21 141 0
-89 141 0
-93 141 0
-141 35 21 89 93 0
-11 142 0
-71 142 0
-78 142 0
-24 142 0
-142 11 71 78 24 0
-98 143 0
-21 143 0
-100 143 0
-77 143 0
-143 98 21 100 77 0
-24 144 0
-36 144 0
-35 144 0
-98 144 0
-144 24 36 35 98 0
-61 145 0
-53 145 0
-91 145 0
-86 145 0
-145 61 53 91 86 0
-19 146 0
-50 146 0
-77 146 0
-21 146 0
-146 19 50 77 21 0
-57 147 0
-28 147 0
-16 147 0
-23 147 0
-147 57 28 16 23 0
-67 148 0
-48 148 0
-22 148 0
-1 148 0
-148 67 48 22 1 0
-68 149 0
-11 149 0
-45 149 0
-78 149 0
-149 68 11 45 78 0
-81 150 0
-23 150 0
-1 150 0
-79 150 0
-150 81 23 1 79 0
-43 151 0
-52 151 0
-7 151 0
-67 151 0
-151 43 52 7 67 0
-87 152 0
-41 152 0
-16 152 0
-48 152 0
-152 87 41 16 48 0
-93 153 0
-58 153 0
-85 153 0
-63 153 0
-153 93 58 85 63 0
-7 154 0
-14 154 0
-35 154 0
-15 154 0
-154 7 14 35 15 0
-41 155 0
-51 155 0
-89 155 0
-59 155 0
-155 41 51 89 59 0
-98 156 0
-11 156 0
-17 156 0
-73 156 0
-156 98 11 17 73 0
-55 157 0
-94 157 0
-5 157 0
-29 157 0
-157 55 94 5 29 0
-46 158 0
-83 158 0
-72 158 0
-98 158 0
-158 46 83 72 98 0
-41 159 0
-90 159 0
-84 159 0
-33 159 0
-159 41 90 84 33 0
-57 160 0
-83 160 0
-78 160 0
-67 160 0
-160 57 83 78 67 0
-20 161 0
-40 161 0
-73 161 0
-33 161 0
-161 20 40 73 33 0
-75 162 0
-88 162 0
-25 162 0
-28 162 0
-162 75 88 25 28 0
-35 163 0
-74 163 0
-38 163 0
-45 163 0
-163 35 74 38 45 0
-90 164 0
-62 164 0
-51 164 0
-35 164 0
-164 90 62 51 35 0
-67 165 0
-80 165 0
-1 165 0
-3 165 0
-165 67 80 1 3 0
-29 166 0
-42 166 0
-44 166 0
-65 166 0
-166 29 42 44 65 0
-74 167 0
-52 167 0
-99 167 0
-51 167 0
-167 74 52 99 51 0
-18 168 0
-91 168 0
-2 168 0
-17 168 0
-168 18 91 2 17 0
-30 169 0
-78 169 0
-93 169 0
-57 169 0
-169 30 78 93 57 0
-12 170 0
-66 170 0
-47 170 0
-56 170 0
-170 12 66 47 56 0
-7 171 0
-8 171 0
-59 171 0
-93 171 0
-171 7 8 59 93 0
-74 172 0
-38 172 0
-24 172 0
-75 172 0
-172 74 38 24 75 0
-92 173 0
-53 173 0
-68 173 0
-35 173 0
-173 92 53 68 35 0
-69 174 0
-93 174 0
-38 174 0
-67 174 0
-174 69 93 38 67 0
-44 175 0
-56 175 0
-85 175 0
-86 175 0
-175 44 56 85 86 0
-98 176 0
-86 176 0
-54 176 0
-27 176 0
-176 98 86 54 27 0
-64 177 0
-46 177 0
-35 177 0
-27 177 0
-177 64 46 35 27 0
-63 178 0
-81 178 0
-35 178 0
-69 178 0
-178 63 81 35 69 0
-41 179 0
-93 179 0
-13 179 0
-66 179 0
-179 41 93 13 66 0
-82 180 0
-36 180 0
-40 180 0
-73 180 0
-180 82 36 40 73 0
-88 181 0
-59 181 0
-56 181 0
-52 181 0
-181 88 59 56 52 0
-96 182 0
-75 182 0
-47 182 0
-3 182 0
-182 96 75 47 3 0
-59 183 0
-84 183 0
-100 183 0
-96 183 0
-183 59 84 100 96 0
-37 184 0
-78 184 0
-11 184 0
-34 184 0
-184 37 78 11 34 0
-13 185 0
-38 185 0
-96 185 0
-45 185 0
-185 13 38 96 45 0
-72 186 0
-16 186 0
-85 186 0
-28 186 0
-186 72 16 85 28 0
-51 187 0
-97 187 0
-63 187 0
-42 187 0
-187 51 97 63 42 0
-21 188 0
-3 188 0
-53 188 0
-79 188 0
-188 21 3 53 79 0
-10 189 0
-4 189 0
-26 189 0
-84 189 0
-189 10 4 26 84 0
-2 190 0
-29 190 0
-94 190 0
-85 190 0
-190 2 29 94 85 0
-28 191 0
-90 191 0
-73 191 0
-6 191 0
-191 28 90 73 6 0
-52 192 0
-6 192 0
-18 192 0
-41 192 0
-192 52 6 18 41 0
-53 193 0
-14 193 0
-64 193 0
-20 193 0
-193 53 14 64 20 0
-99 194 0
-79 194 0
-47 194 0
-1 194 0
-194 99 79 47 1 0
-27 195 0
-61 195 0
-42 195 0
-47 195 0
-195 27 61 42 47 0
-15 196 0
-94 196 0
-25 196 0
-49 196 0
-196 15 94 25 49 0
-51 197 0
-60 197 0
-2 197 0
-79 197 0
-197 51 60 2 79 0
-54 198 0
-86 198 0
-58 198 0
-95 198 0
-198 54 86 58 95 0
-10 199 0
-63 199 0
-46 199 0
-67 199 0
-199 10 63 46 67 0
-32 200 0
-87 200 0
-19 200 0
-46 200 0
-200 32 87 19 46 0
c p weight 123 0.47909105 0
c p weight -123 0.52090895 0
c p weight 87 0.64417023 0
c p weight -87 0.35582977 0
c p weight 83 0.58069325 0
c p weight -83 0.41930675 0
c p weight 169 0.43673459 0
c p weight -169 0.56326541 0
c p weight 132 0.64895410 0
c p weight -132 0.35104590 0
c p weight 16 0.31224458 0
c p weight -16 0.68775542 0
c p weight 44 0.47303436 0
c p weight -44 0.52696564 0
c p weight 193 0.66980859 0
c p weight -193 0.33019141 0
c p weight 1 1 0
c p weight -1 1 0
c p weight 2 1 0
c p weight -2 1 0
c p weight 3 1 0
c p weight -3 1 0
c p weight 4 1 0
c p weight -4 1 0
c p weight 5 1 0
c p weight -5 1 0
c p weight 6 1 0
c p weight -6 1 0
c p weight 7 1 0
c p weight -7 1 0
c p weight 8 1 0
c p weight -8 1 0
c p weight 9 1 0
c p weight -9 1 0
c p weight 10 1 0
c p weight -10 1 0
c p weight 11 1 0
c p weight -11 1 0
c p weight 12 1 0
c p weight -12 1 0
c p weight 13 1 0
c p weight -13 1 0
c p weight 14 1 0
c p weight -14 1 0
c p weight 15 1 0
c p weight -15 1 0
c p weight 17 1 0
c p weight -17 1 0
c p weight 18 1 0
c p weight -18 1 0
c p weight 19 1 0
c p weight -19 1 0
c p weight 20 1 0
c p weight -20 1 0
c p weight 21 1 0
c p weight -21 1 0
c p weight 22 1 0
c p weight -22 1 0
c p weight 23 1 0
c p weight -23 1 0
c p weight 24 1 0
c p weight -24 1 0
c p weight 25 1 0
c p weight -25 1 0
c p weight 26 1 0
c p weight -26 1 0
c p weight 27 1 0
c p weight -27 1 0
c p weight 28 1 0
c p weight -28 1 0
c p weight 29 1 0
c p weight -29 1 0
c p weight 30 1 0
c p weight -30 1 0
c p weight 31 1 0
c p weight -31 1 0
c p weight 32 1 0
c p weight -32 1 0
c p weight 33 1 0
c p weight -33 1 0
c p weight 34 1 0
c p weight -34 1 0
c p weight 35 1 0
c p weight -35 1 0
c p weight 36 1 0
c p weight -36 1 0
c p weight 37 1 0
c p weight -37 1 0
c p weight 38 1 0
c p weight -38 1 0
c p weight 39 1 0
c p weight -39 1 0
c p weight 40 1 0
c p weight -40 1 0
c p weight 41 1 0
c p weight -41 1 0
c p weight 42 1 0
c p weight -42 1 0
c p weight 43 1 0
c p weight -43 1 0
c p weight 45 1 0
c p weight -45 1 0
c p weight 46 1 0
c p weight -46 1 0
c p weight 47 1 0
c p weight -47 1 0
c p weight 48 1 0
c p weight -48 1 0
c p weight 49 1 0
c p weight -49 1 0
c p weight 50 1 0
c p weight -50 1 0
c p weight 51 1 0
c p weight -51 1 0
c p weight 52 1 0
c p weight -52 1 0
c p weight 53 1 0
c p weight -53 1 0
c p weight 54 1 0
c p weight -54 1 0
c p weight 55 1 0
c p weight -55 1 0
c p weight 56 1 0
c p weight -56 1 0
c p weight 57 1 0
c p weight -57 1 0
c p weight 58 1 0
c p weight -58 1 0
c p weight 59 1 0
c p weight -59 1 0
c p weight 60 1 0
c p weight -60 1 0
c p weight 61 1 0
c p weight -61 1 0
c p weight 62 1 0
c p weight -62 1 0
c p weight 63 1 0
c p weight -63 1 0
c p weight 64 1 0
c p weight -64 1 0
c p weight 65 1 0
c p weight -65 1 0
c p weight 66 1 0
c p weight -66 1 0
c p weight 67 1 0
c p weight -67 1 0
c p weight 68 1 0
c p weight -68 1 0
c p weight 69 1 0
c p weight -69 1 0
c p weight 70 1 0
c p weight -70 1 0
c p weight 71 1 0
c p weight -71 1 0
c p weight 72 1 0
c p weight -72 1 0
c p weight 73 1 0
c p weight -73 1 0
c p weight 74 1 0
c p weight -74 1 0
c p weight 75 1 0
c p weight -75 1 0
c p weight 76 1 0
c p weight -76 1 0
c p weight 77 1 0
c p weight -77 1 0
c p weight 78 1 0
c p weight -78 1 0
c p weight 79 1 0
c p weight -79 1 0
c p weight 80 1 0
c p weight -80 1 0
c p weight 81 1 0
c p weight -81 1 0
c p weight 82 1 0
c p weight -82 1 0
c p weight 84 1 0
c p weight -84 1 0
c p weight 85 1 0
c p weight -85 1 0
c p weight 86 1 0
c p weight -86 1 0
c p weight 88 1 0
c p weight -88 1 0
c p weight 89 1 0
c p weight -89 1 0
c p weight 90 1 0
c p weight -90 1 0
c p weight 91 1 0
c p weight -91 1 0
c p weight 92 1 0
c p weight -92 1 0
c p weight 93 1 0
c p weight -93 1 0
c p weight 94 1 0
c p weight -94 1 0
c p weight 95 1 0
c p weight -95 1 0
c p weight 96 1 0
c p weight -96 1 0
c p weight 97 1 0
c p weight -97 1 0
c p weight 98 1 0
c p weight -98 1 0
c p weight 99 1 0
c p weight -99 1 0
c p weight 100 1 0
c p weight -100 1 0
c p weight 101 1 0
c p weight -101 1 0
c p weight 102 1 0
c p weight -102 1 0
c p weight 103 1 0
c p weight -103 1 0
c p weight 104 1 0
c p weight -104 1 0
c p weight 105 1 0
c p weight -105 1 0
c p weight 106 1 0
c p weight -106 1 0
c p weight 107 1 0
c p weight -107 1 0
c p weight 108 1 0
c p weight -108 1 0
c p weight 109 1 0
c p weight -109 1 0
c p weight 110 1 0
c p weight -110 1 0
c p weight 111 1 0
c p weight -111 1 0
c p weight 112 1 0
c p weight -112 1 0
c p weight 113 1 0
c p weight -113 1 0
c p weight 114 1 0
c p weight -114 1 0
c p weight 115 1 0
c p weight -115 1 0
c p weight 116 1 0
c p weight -116 1 0
c p weight 117 1 0
c p weight -117 1 0
c p weight 118 1 0
c p weight -118 1 0
c p weight 119 1 0
c p weight -119 1 0
c p weight 120 1 0
c p weight -120 1 0
c p weight 121 1 0
c p weight -121 1 0
c p weight 122 1 0
c p weight -122 1 0
c p weight 124 1 0
c p weight -124 1 0
c p weight 125 1 0
c p weight -125 1 0
c p weight 126 1 0
c p weight -126 1 0
c p weight 127 1 0
c p weight -127 1 0
c p weight 128 1 0
c p weight -128 1 0
c p weight 129 1 0
c p weight -129 1 0
c p weight 130 1 0
c p weight -130 1 0
c p weight 131 1 0
c p weight -131 1 0
c p weight 133 1 0
c p weight -133 1 0
c p weight 134 1 0
c p weight -134 1 0
c p weight 135 1 0
c p weight -135 1 0
c p weight 136 1 0
c p weight -136 1 0
c p weight 137 1 0
c p weight -137 1 0
c p weight 138 1 0
c p weight -138 1 0
c p weight 139 1 0
c p weight -139 1 0
c p weight 140 1 0
c p weight -140 1 0
c p weight 141 1 0
c p weight -141 1 0
c p weight 142 1 0
c p weight -142 1 0
c p weight 143 1 0
c p weight -143 1 0
c p weight 144 1 0
c p weight -144 1 0
c p weight 145 1 0
c p weight -145 1 0
c p weight 146 1 0
c p weight -146 1 0
c p weight 147 1 0
c p weight -147 1 0
c p weight 148 1 0
c p weight -148 1 0
c p weight 149 1 0
c p weight -149 1 0
c p weight 150 1 0
c p weight -150 1 0
c p weight 151 1 0
c p weight -151 1 0
c p weight 152 1 0
c p weight -152 1 0
c p weight 153 1 0
c p weight -153 1 0
c p weight 154 1 0
c p weight -154 1 0
c p weight 155 1 0
c p weight -155 1 0
c p weight 156 1 0
c p weight -156 1 0
c p weight 157 1 0
c p weight -157 1 0
c p weight 158 1 0
c p weight -158 1 0
c p weight 159 1 0
c p weight -159 1 0
c p weight 160 1 0
c p weight -160 1 0
c p weight 161 1 0
c p weight -161 1 0
c p weight 162 1 0
c p weight -162 1 0
c p weight 163 1 0
c p weight -163 1 0
c p weight 164 1 0
c p weight -164 1 0
c p weight 165 1 0
c p weight -165 1 0
c p weight 166 1 0
c p weight -166 1 0
c p weight 167 1 0
c p weight -167 1 0
c p weight 168 1 0
c p weight -168 1 0
c p weight 170 1 0
c p weight -170 1 0
c p weight 171 1 0
c p weight -171 1 0
c p weight 172 1 0
c p weight -172 1 0
c p weight 173 1 0
c p weight -173 1 0
c p weight 174 1 0
c p weight -174 1 0
c p weight 175 1 0
c p weight -175 1 0
c p weight 176 1 0
c p weight -176 1 0
c p weight 177 1 0
c p weight -177 1 0
c p weight 178 1 0
c p weight -178 1 0
c p weight 179 1 0
c p weight -179 1 0
c p weight 180 1 0
c p weight -180 1 0
c p weight 181 1 0
c p weight -181 1 0
c p weight 182 1 0
c p weight -182 1 0
c p weight 183 1 0
c p weight -183 1 0
c p weight 184 1 0
c p weight -184 1 0
c p weight 185 1 0
c p weight -185 1 0
c p weight 186 1 0
c p weight -186 1 0
c p weight 187 1 0
c p weight -187 1 0
c p weight 188 1 0
c p weight -188 1 0
c p weight 189 1 0
c p weight -189 1 0
c p weight 190 1 0
c p weight -190 1 0
c p weight 191 1 0
c p weight -191 1 0
c p weight 192 1 0
c p weight -192 1 0
c p weight 194 1 0
c p weight -194 1 0
c p weight 195 1 0
c p weight -195 1 0
c p weight 196 1 0
c p weight -196 1 0
c p weight 197 1 0
c p weight -197 1 0
c p weight 198 1 0
c p weight -198 1 0
c p weight 199 1 0
c p weight -199 1 0
c p weight 200 1 0
c p weight -200 1 0

